NAME: instance_11
TYPE: TSP
COMMENT: 11-city problem
DIMENSION: 11
EDGE_WEIGHT_TYPE: EUC_2D
NODE_COORD_SECTION
0 541 830
1 407 144
2 294 907
3 133 748
4 648 611
5 951 220
6 32 285
7 315 646
8 952 858
9 522 64
10 301 748
EOF
